&control
	calculation = 'vc-relax'
	restart_mode = 'from_scratch'
	prefix = 'Al_relax'
	tstress = .true.
	tprnfor = .true.
	pseudo_dir = './'
/

&system
	ibrav = 2,
	celldm(1) = 5.000,
	nat = 1, ntyp = 1,
	ecutwfc = 20
	occupations = 'smearing'
	smearing = 'methfessel-paxton'
	degauss = 0.05
/

&electrons
	mixing_beta = 0.7
	conv_thr = 1.0d-8
/

&ions
	ion_dynamics='bfgs'
/

&cell
	cell_dynamics = 'bfgs'
/

ATOMIC_SPECIES
Al 26.981 Al.pbe-n-kjpaw_psl.1.0.0.UPF
ATOMIC_POSITIONS (alat)
Al 0.0 0.0 0.0
K_POINTS (automatic)
4 4 4 0 0 0

